c src/chapter2/puzzle.sat

c - このファイルは以下の論理式に対応しています：
c ((b || !t1) && (!a || !t1) && ((!b || t1) && (a || t1) &&
c ((b || !t2) && (!a || !t2) && ((!b || !t2) && (a || t2)

c - 論理変数の割当：
c a -> 1
c b -> 2
c c -> 3
c t1 -> 4
c t2 -> 5

c - 以下が本体：
p cnf 5 8
2 -4 0
-1 -4 0
-2 4 0
1 4 0
3 -5 0
-2 -5 0
-3 5 0
2 5 0
